20
1 0 7
2 1 2
5 1 5
5 3 5
6 0 6
6 4 5
6 5 10
7 1 9
7 2 9
7 4 10
7 5 6
9 0 9
9 2 7
10 1 9
10 5 5
11 0 7
11 1 8
11 3 2
11 5 7
11 7 1
12 2 5
12 4 4
12 7 5
12 9 6
13 1 7
13 3 5
13 4 5
13 8 1
13 9 10
13 11 5
14 8 9
14 12 1
15 5 7
15 6 10
15 9 3
15 11 2
15 12 5
15 14 2
16 1 1
16 3 8
16 5 3
16 6 10
16 7 4
16 8 2
16 9 6
16 12 10
17 2 5
17 9 6
17 11 7
17 14 2
18 5 1
18 7 2
18 9 7
18 14 6
18 16 9
18 17 9
19 0 8
19 1 7
19 10 1
19 11 9
19 12 10
19 18 10
